molecule {
    0 1
    H    0.000000216  -0.312689967   0.000000000
   Cl   -0.000001282   1.030655196   0.000000000    
    --
    0 1
    N    0.000002238  -1.690125077   0.000000000
    H   -0.473181893  -2.049133129   0.819577485
    H   -0.473181893  -2.049133129  -0.819577485
    H    0.946368414  -2.049134909   0.000000000
    units angstrom
}

set {
    basis                  aug-cc-pVQZ
    sapt_dft_grac_shift_a  0.116251 
    sapt_dft_grac_shift_b  0.113162 
    sapt_dft_do_hybrid     true
    do_ind_exch_sinf       true
    do_disp_exch_sinf      true
}

energy('sapt(dft)')
