#charge=0 charge_a=0 charge_b=0 selection_a=1-2 selection_b=3-13 scaling=1.05 benchmark_Eint=-11.882 benchmark_unit=kcal/mol group=XH-N
set_num_threads(4)
memory 8 GB
basis this_basis {
    assign    aug-cc-pVQZ
}

molecule {
     0 1
    --
     0 1
     H        0.00000        0.00000        1.62588
    Cl        0.00000        0.00000        2.99334
    --
     0 1
     H        0.00000       -2.14771       -2.62908
     H        0.00000       -2.05142       -0.13555
     C        0.00000        0.00000       -2.82288
     C        0.00000       -1.19640       -2.11877
     C        0.00000       -1.14931       -0.73283
     N        0.00000        0.00000       -0.05984
     C        0.00000        1.14931       -0.73283
     C        0.00000        1.19640       -2.11877
     H        0.00000        2.05142       -0.13555
     H        0.00000        2.14771       -2.62908
     H        0.00000        0.00000       -3.90346
}

set {
    scf_type                DF
    freeze_core             false
    do_ind_exch_sinf        true
    do_disp_exch_sinf       true
}

nrg = energy('sapt2+dmp2')
